&CONTROL
   tstress          = .true.
   tprnfor          = .true.
   pseudo_dir       = '/users/kbadger1/espresso/pseudo/pslibrary.1.0.0/pbe/PSEUDOPOTENTIALS'
/
&SYSTEM
   ecutwfc          = 40
   nosym            = .true.
   occupations      = 'smearing'
   degauss          = 0.01
   smearing         = 'marzari-vanderbilt'
   vdw_corr         = 'dft-d3'
   nspin            = 2
   starting_magnetization(1) = 0.6
   starting_magnetization(2) = 0.6
   starting_magnetization(3) = 0.6
   ntyp             = 3
   nat              = 40
   ibrav            = 0
/
&ELECTRONS
   mixing_mode      = 'local-TF'
   mixing_beta      = 0.3
/
&IONS
/
&CELL
/
ATOMIC_SPECIES
Ni  58.6934 Ni.pbe-n-kjpaw_psl.1.0.0.UPF
C  12.011 C.pbe-n-kjpaw_psl.1.0.0.UPF
H  1.008 H.pbe-kjpaw_psl.1.0.0.UPF

K_POINTS automatic
5 5 1  0 0 0

CELL_PARAMETERS angstrom
7.46704760932994 0.00000000000000 0.00000000000000
3.73352380466497 6.46665292094759 0.00000000000000
0.00000000000000 0.00000000000000 24.59681884264245

ATOMIC_POSITIONS angstrom
Ni  0.0000000000 0.0000000000 8.5000000000   0 0 0
Ni  2.4890158698 0.0000000000 8.5000000000   0 0 0
Ni  4.9780317396 0.0000000000 8.5000000000   0 0 0
Ni  1.2445079349 2.1555509736 8.5000000000   0 0 0
Ni  3.7335238047 2.1555509736 8.5000000000   0 0 0
Ni  6.2225396744 2.1555509736 8.5000000000   0 0 0
Ni  2.4890158698 4.3111019473 8.5000000000   0 0 0
Ni  4.9780317396 4.3111019473 8.5000000000   0 0 0
Ni  7.4670476093 4.3111019473 8.5000000000   0 0 0
Ni  1.2445079349 0.7185169912 10.5322729475   0 0 0
Ni  3.7335238047 0.7185169912 10.5322729475   0 0 0
Ni  6.2225396744 0.7185169912 10.5322729475   0 0 0
Ni  2.4890158698 2.8740679649 10.5322729475   0 0 0
Ni  4.9780317396 2.8740679649 10.5322729475   0 0 0
Ni  7.4670476093 2.8740679649 10.5322729475   0 0 0
Ni  3.7335238047 5.0296189385 10.5322729475   0 0 0
Ni  6.2225396744 5.0296189385 10.5322729475   0 0 0
Ni  8.7115555442 5.0296189385 10.5322729475   0 0 0
Ni  0.0044211228 1.4346092724 12.5277542586  
Ni  2.4846409718 1.4345855520 12.5278696912  
Ni  4.9779697497 1.4312303084 12.5110962686  
Ni  1.2445330931 3.5794123483 12.5413185242  
Ni  3.7283834142 3.5954087295 12.5110948490  
Ni  6.2276550630 3.5954811802 12.5110405078  
Ni  2.5003404978 5.7546442773 12.5413458501  
Ni  4.9780861108 5.7532217817 12.5278276170  
Ni  7.4556810386 5.7546841907 12.5413614844  
Ni  -0.0142627156 -0.0082284459 14.5685657402  
Ni  2.5033479859 -0.0081764151 14.5685062108  
Ni  4.9779994252 0.0002776098 14.5127065096  
Ni  1.2445943617 2.1720736690 14.5684682746  
Ni  3.7621894058 2.1721050999 14.4993504903  
Ni  6.1937688164 2.1721263606 14.4995085904  
Ni  2.4892325981 4.3109314822 14.5126611951  
Ni  4.9779889646 4.2779090477 14.4994901851  
Ni  7.4668706451 4.3110057512 14.5126477082  
C  2.9589716254 0.8833014795 18.4864190297  
H  2.1820371111 1.4957501150 19.0139912434  
H  3.8866394059 0.9551668562 19.1119825387  
H  2.6168736068 -0.1817622097 18.5618974310  

