&CONTROL
   tstress          = .true.
   tprnfor          = .true.
   pseudo_dir       = '/users/kbadger1/espresso/pseudo/pslibrary.1.0.0/pbe/PSEUDOPOTENTIALS'
/
&SYSTEM
   ecutwfc          = 40
   nosym            = .true.
   occupations      = 'smearing'
   degauss          = 0.01
   smearing         = 'marzari-vanderbilt'
   vdw_corr         = 'dft-d3'
   nspin            = 2
   starting_magnetization(1) = 0.6
   starting_magnetization(2) = 0.6
   starting_magnetization(3) = 0.6
   ntyp             = 3
   nat              = 40
   ibrav            = 0
/
&ELECTRONS
   mixing_mode      = 'local-TF'
   mixing_beta      = 0.3
/
&IONS
/
&CELL
/
ATOMIC_SPECIES
Ni  58.6934 Ni.pbe-n-kjpaw_psl.1.0.0.UPF
C  12.011 C.pbe-n-kjpaw_psl.1.0.0.UPF
H  1.008 H.pbe-kjpaw_psl.1.0.0.UPF

K_POINTS automatic
5 5 1  0 0 0

CELL_PARAMETERS angstrom
7.46704760932994 0.00000000000000 0.00000000000000
3.73352380466497 6.46665292094759 0.00000000000000
0.00000000000000 0.00000000000000 24.59681884264245

ATOMIC_POSITIONS angstrom
Ni  0.0000000000 0.0000000000 8.5000000000   0 0 0
Ni  2.4890158698 0.0000000000 8.5000000000   0 0 0
Ni  4.9780317396 0.0000000000 8.5000000000   0 0 0
Ni  1.2445079349 2.1555509736 8.5000000000   0 0 0
Ni  3.7335238047 2.1555509736 8.5000000000   0 0 0
Ni  6.2225396744 2.1555509736 8.5000000000   0 0 0
Ni  2.4890158698 4.3111019473 8.5000000000   0 0 0
Ni  4.9780317396 4.3111019473 8.5000000000   0 0 0
Ni  7.4670476093 4.3111019473 8.5000000000   0 0 0
Ni  1.2445079349 0.7185169912 10.5322729475   0 0 0
Ni  3.7335238047 0.7185169912 10.5322729475   0 0 0
Ni  6.2225396744 0.7185169912 10.5322729475   0 0 0
Ni  2.4890158698 2.8740679649 10.5322729475   0 0 0
Ni  4.9780317396 2.8740679649 10.5322729475   0 0 0
Ni  7.4670476093 2.8740679649 10.5322729475   0 0 0
Ni  3.7335238047 5.0296189385 10.5322729475   0 0 0
Ni  6.2225396744 5.0296189385 10.5322729475   0 0 0
Ni  8.7115555442 5.0296189385 10.5322729475   0 0 0
Ni  0.0039134767 1.4347742120 12.5292548782  
Ni  2.4850979584 1.4347893467 12.5292464810  
Ni  4.9780357109 1.4322668919 12.5168186629  
Ni  1.2445201098 3.5818060923 12.5407011892  
Ni  3.7293775979 3.5950134826 12.5168609209  
Ni  6.2266642142 3.5949996607 12.5168619674  
Ni  2.4983880490 5.7534900550 12.5406892064  
Ni  4.9780232443 5.7526163727 12.5292895501  
Ni  7.4576876520 5.7535033732 12.5406890633  
Ni  -0.0093180107 -0.0054500101 14.5726730107  
Ni  2.4983275865 -0.0054065270 14.5726910662  
Ni  4.9780414581 -0.0012137991 14.5201697738  
Ni  1.2445377187 2.1663501775 14.5726726284  
Ni  3.7575406850 2.1694565233 14.5038185999  
Ni  6.1985001828 2.1694442145 14.5038076792  
Ni  2.4880160049 4.3117038778 14.5201322490  
Ni  4.9779959169 4.2833864808 14.5037767745  
Ni  7.4680809025 4.3117102475 14.5201770146  
C  2.7850341571 1.0772249644 16.2983106880  
H  1.9020642446 0.4101873237 16.4707718467  
H  2.3861169847 2.1236956612 16.2896553904  
H  3.4199617836 0.9949951582 17.2172279147  

